words_hard_train/6314.qaiger
aag 125 16 0 1 109
2
4
8
10
30
32
72
74
104
106
134
144
172
182
212
220
251
6 3 5
12 9 11
14 8 10
16 13 15
18 16 4
20 7 19
22 16 3
24 21 23
26 18 2
28 27 15
34 31 33
36 30 32
38 35 37
40 28 39
42 29 38
44 41 43
46 25 44
48 24 45
50 47 49
52 51 31
54 50 30
56 5 11
58 57 15
60 8 11
62 61 6
64 59 63
66 55 65
68 53 67
70 43 37
76 73 75
78 72 74
80 77 79
82 70 81
84 71 80
86 83 85
88 49 86
90 48 87
92 89 91
94 92 72
96 69 95
98 93 73
100 97 99
102 85 79
108 105 107
110 104 106
112 109 111
114 102 113
116 103 112
118 115 117
120 91 118
122 90 119
124 121 123
126 124 105
128 101 127
130 125 104
132 129 131
136 105 135
138 104 134
140 137 139
142 117 111
146 135 145
148 134 144
150 147 149
152 142 151
154 143 150
156 153 155
158 123 156
160 122 157
162 159 161
164 140 162
166 133 165
168 141 163
170 167 169
174 138 172
176 139 173
178 175 177
180 155 149
184 173 183
186 172 182
188 185 187
190 180 189
192 181 188
194 191 193
196 161 194
198 160 195
200 197 199
202 179 200
204 171 203
206 178 201
208 205 207
210 208 198
214 177 213
216 176 212
218 215 217
222 212 221
224 213 220
226 223 225
228 193 187
230 227 229
232 226 228
234 231 233
236 218 234
238 211 237
240 209 199
242 219 235
244 241 243
246 238 245
248 210 236
250 247 249
i0 1 x1[0]
i1 2 y2[0]
i2 1 x1[1]
i3 2 y2[1]
i4 1 x1[2]
i5 2 y2[2]
i6 1 x1[3]
i7 2 y2[3]
i8 1 x1[4]
i9 2 y2[4]
i10 1 x1[5]
i11 2 y2[5]
i12 1 x1[6]
i13 2 y2[6]
i14 1 x1[7]
i15 2 y2[7]
o0 bv[0]
c
simplified
  >
    add
      1 x1
      2 y2
    add
      unary minus
        -80
      1 x1
