words_hard_train/6314.qaiger.qdimacs
p cnf 125 328
a 1 67 4 36 106 15 52 86 0
e 2 3 5 6 7 8 9 10 11 12 13 14 16 17 18 19 20 21 22 23 24 25 26 27 28 29 30 31 32 33 34 35 37 38 39 40 41 42 43 44 45 46 47 48 49 50 51 53 54 55 56 57 58 59 60 61 62 63 64 65 66 68 69 70 71 72 73 74 75 76 77 78 79 80 81 82 83 84 85 87 88 89 90 91 92 93 94 95 96 97 98 99 100 101 102 103 104 105 107 108 109 110 111 112 113 114 115 116 117 118 119 120 121 122 123 124 125 0
1 2 3 0
-1 -3 0
-2 -3 0
4 5 6 0
-4 -6 0
-5 -6 0
-4 -5 7 0
4 -7 0
5 -7 0
6 7 8 0
-6 -8 0
-7 -8 0
-8 -2 9 0
8 -9 0
2 -9 0
3 9 10 0
-3 -10 0
-9 -10 0
-8 1 11 0
8 -11 0
-1 -11 0
10 11 12 0
-10 -12 0
-11 -12 0
-9 -1 13 0
9 -13 0
1 -13 0
13 7 14 0
-13 -14 0
-7 -14 0
15 16 17 0
-15 -17 0
-16 -17 0
-15 -16 18 0
15 -18 0
16 -18 0
17 18 19 0
-17 -19 0
-18 -19 0
-14 19 20 0
14 -20 0
-19 -20 0
14 -19 21 0
-14 -21 0
19 -21 0
20 21 22 0
-20 -22 0
-21 -22 0
12 -22 23 0
-12 -23 0
22 -23 0
-12 22 24 0
12 -24 0
-22 -24 0
23 24 25 0
-23 -25 0
-24 -25 0
25 15 26 0
-25 -26 0
-15 -26 0
-25 -15 27 0
25 -27 0
15 -27 0
2 5 28 0
-2 -28 0
-5 -28 0
28 7 29 0
-28 -29 0
-7 -29 0
-4 5 30 0
4 -30 0
-5 -30 0
30 -3 31 0
-30 -31 0
3 -31 0
29 31 32 0
-29 -32 0
-31 -32 0
27 32 33 0
-27 -33 0
-32 -33 0
26 33 34 0
-26 -34 0
-33 -34 0
21 18 35 0
-21 -35 0
-18 -35 0
36 37 38 0
-36 -38 0
-37 -38 0
-36 -37 39 0
36 -39 0
37 -39 0
38 39 40 0
-38 -40 0
-39 -40 0
-35 40 41 0
35 -41 0
-40 -41 0
35 -40 42 0
-35 -42 0
40 -42 0
41 42 43 0
-41 -43 0
-42 -43 0
24 -43 44 0
-24 -44 0
43 -44 0
-24 43 45 0
24 -45 0
-43 -45 0
44 45 46 0
-44 -46 0
-45 -46 0
-46 -36 47 0
46 -47 0
36 -47 0
34 47 48 0
-34 -48 0
-47 -48 0
46 36 49 0
-46 -49 0
-36 -49 0
48 49 50 0
-48 -50 0
-49 -50 0
42 39 51 0
-42 -51 0
-39 -51 0
52 53 54 0
-52 -54 0
-53 -54 0
-52 -53 55 0
52 -55 0
53 -55 0
54 55 56 0
-54 -56 0
-55 -56 0
-51 56 57 0
51 -57 0
-56 -57 0
51 -56 58 0
-51 -58 0
56 -58 0
57 58 59 0
-57 -59 0
-58 -59 0
45 -59 60 0
-45 -60 0
59 -60 0
-45 59 61 0
45 -61 0
-59 -61 0
60 61 62 0
-60 -62 0
-61 -62 0
-62 52 63 0
62 -63 0
-52 -63 0
50 63 64 0
-50 -64 0
-63 -64 0
62 -52 65 0
-62 -65 0
52 -65 0
64 65 66 0
-64 -66 0
-65 -66 0
52 67 68 0
-52 -68 0
-67 -68 0
-52 -67 69 0
52 -69 0
67 -69 0
68 69 70 0
-68 -70 0
-69 -70 0
58 55 71 0
-58 -71 0
-55 -71 0
67 72 73 0
-67 -73 0
-72 -73 0
-67 -72 74 0
67 -74 0
72 -74 0
73 74 75 0
-73 -75 0
-74 -75 0
-71 75 76 0
71 -76 0
-75 -76 0
71 -75 77 0
-71 -77 0
75 -77 0
76 77 78 0
-76 -78 0
-77 -78 0
61 -78 79 0
-61 -79 0
78 -79 0
-61 78 80 0
61 -80 0
-78 -80 0
79 80 81 0
-79 -81 0
-80 -81 0
-70 -81 82 0
70 -82 0
81 -82 0
66 82 83 0
-66 -83 0
-82 -83 0
70 81 84 0
-70 -84 0
-81 -84 0
83 84 85 0
-83 -85 0
-84 -85 0
-69 -86 87 0
69 -87 0
86 -87 0
69 86 88 0
-69 -88 0
-86 -88 0
87 88 89 0
-87 -89 0
-88 -89 0
77 74 90 0
-77 -90 0
-74 -90 0
86 91 92 0
-86 -92 0
-91 -92 0
-86 -91 93 0
86 -93 0
91 -93 0
92 93 94 0
-92 -94 0
-93 -94 0
-90 94 95 0
90 -95 0
-94 -95 0
90 -94 96 0
-90 -96 0
94 -96 0
95 96 97 0
-95 -97 0
-96 -97 0
80 -97 98 0
-80 -98 0
97 -98 0
-80 97 99 0
80 -99 0
-97 -99 0
98 99 100 0
-98 -100 0
-99 -100 0
89 -100 101 0
-89 -101 0
100 -101 0
85 101 102 0
-85 -102 0
-101 -102 0
-89 100 103 0
89 -103 0
-100 -103 0
102 103 104 0
-102 -104 0
-103 -104 0
-104 -99 105 0
104 -105 0
99 -105 0
88 106 107 0
-88 -107 0
-106 -107 0
-88 -106 108 0
88 -108 0
106 -108 0
107 108 109 0
-107 -109 0
-108 -109 0
-106 110 111 0
106 -111 0
-110 -111 0
106 -110 112 0
-106 -112 0
110 -112 0
111 112 113 0
-111 -113 0
-112 -113 0
96 93 114 0
-96 -114 0
-93 -114 0
113 114 115 0
-113 -115 0
-114 -115 0
-113 -114 116 0
113 -116 0
114 -116 0
115 116 117 0
-115 -117 0
-116 -117 0
-109 -117 118 0
109 -118 0
117 -118 0
105 118 119 0
-105 -119 0
-118 -119 0
104 99 120 0
-104 -120 0
-99 -120 0
109 117 121 0
-109 -121 0
-117 -121 0
120 121 122 0
-120 -122 0
-121 -122 0
-119 122 123 0
119 -123 0
-122 -123 0
-105 -118 124 0
105 -124 0
118 -124 0
123 124 125 0
-123 -125 0
-124 -125 0
-125 0
